NAME      new_example_2
ROWS
 N  obj
 G  e1
 L  e2
COLUMNS
    x0        obj                  0
    x0        e1                   1
    x0        e2                   1
    x1        obj                  0
    x1        e1                  -1
    x1        e2                  -1
    x2        obj                  0
    x2        e1                 0.5
    x2        e2                 0.5
    x3        obj                  0
    x3        e1                   2
    x3        e2                   2
RHS
    rhs       e1                   2
    rhs       e2                   1
BOUNDS
 LO bnd       x0                   1
 LO bnd       x1                   0
 LO bnd       x2                   0
 LO bnd       x3                  -1
 UP bnd       x0                   4
 UP bnd       x1                   2
 UP bnd       x2                   3
 UP bnd       x3                   2
ENDATA